1203 1187 1220 1264 1505
1405 1598 1181 1253 1335
1250 1205 1391 1463 1272
1180 1360 1313 1249 1253
1246 1220 1308 1593 1452
1309 1146 1499 1207 1245
1446 1597 1208 1336 1194
1177 1482 1299 1239 1199
1287 1467 1190 1565 1311
1270 1316 1203 1459 1251
